--------------------------------------------------------------------------------(Solver execution current time: 0.000545501708984375)
[INFO] Input Seed : 0
--------------------------------------------------------------------------------(Solver execution current time: 0.000675201416015625)
[INFO] Input time limit : 3600
--------------------------------------------------------------------------------(Solver execution current time: 0.0007696151733398438)
[INFO] Command line arguments read with no errors.
--------------------------------------------------------------------------------(Solver execution current time: 1.341095209121704)
[INFO] Input file read with no errors.
--------------------------------------------------------------------------------(Solver execution current time: 1.3412103652954102)
[INFO] Starting solver.
--------------------------------------------------------------------------------(Solver execution current time: 1.341284990310669)
[INFO] Starting construction
--------------------------------------------------------------------------------(Solver execution current time: 2865.1893441677094)
[INFO] Finished construction
--------------------------------------------------------------------------------(Solver execution current time: 2865.225845336914)
[SOLUTION]
Basic Greedy Heuristic
Exec Time: 2863.837245941162
obj_value: -494; obj_routes: 4341
Route 1 : 10 89 589 510 56 267 556 351 851 226 726 318 818 200 700 15 359 859 515 241 767 741 
Route 2 : 79 95 299 799 228 728 334 834 595 161 492 992 440 940 181 681 70 579 167 667 410 910 488 988 661 278 778 570 
Route 3 : 123 277 623 74 574 777 304 411 911 415 288 788 915 119 485 985 272 772 619 238 738 427 927 804 
Route 4 : 360 68 429 568 860 66 566 409 438 464 929 964 11 155 655 511 938 909 474 974 259 759 
Route 5 : 292 105 131 605 444 792 631 944 111 466 611 30 966 530 294 497 408 794 997 908 476 2 383 883 502 976 
Route 6 : 484 984 223 317 817 325 825 148 268 768 75 648 393 575 723 99 455 893 599 955 300 800 
Route 7 : 338 838 253 753 248 240 748 740 157 657 461 387 42 961 58 887 542 558 195 695 178 678 
Route 8 : 72 572 162 400 34 534 900 456 361 662 956 285 45 861 545 283 785 133 783 633 
Route 9 : 216 716 396 59 559 896 271 321 224 821 335 835 138 771 382 882 16 516 453 953 477 977 724 638 
Route 10 : 173 673 182 682 209 709 404 904 386 886 390 333 124 890 323 624 833 823 
Route 11 : 433 261 761 933 265 113 765 613 412 252 752 239 739 302 150 174 802 475 650 912 324 824 674 975 
Route 12 : 54 188 688 204 704 554 373 43 306 806 543 873 24 370 870 524 78 6 506 163 578 663 39 539 
Route 13 : 413 913 83 403 463 903 377 963 583 180 877 339 134 680 266 839 634 398 389 898 766 889 242 742 
Route 14 : 349 152 849 234 734 652 480 176 245 745 117 676 980 617 207 129 110 629 707 286 610 298 786 798 
Route 15 : 77 139 639 577 249 496 996 465 965 309 809 749 237 737 147 41 647 541 296 796 
Route 16 : 269 258 758 127 769 627 347 112 847 428 928 135 635 312 612 50 550 219 812 719 81 130 581 630 
Route 17 : 380 210 710 213 880 446 713 489 946 303 803 989 5 37 537 186 348 62 505 686 562 848 
Route 18 : 264 214 194 694 764 246 714 746 52 552 115 315 615 316 815 816 175 414 914 459 675 959 158 658 
Route 19 : 483 365 375 327 827 443 983 865 76 322 822 943 576 875 401 452 352 952 243 743 852 215 478 715 901 978 19 69 519 569 
Route 20 : 435 337 935 160 837 116 660 255 371 755 871 168 222 722 193 668 616 693 88 588 418 328 93 828 918 593 144 644 
Route 21 : 424 924 201 247 701 462 100 747 395 895 156 600 49 549 962 656 274 8 508 774 90 221 25 721 445 590 525 945 
Route 22 : 313 85 17 585 517 136 636 437 937 128 439 813 120 939 369 293 620 793 73 573 114 614 63 563 460 960 628 869 
Route 23 : 263 18 94 594 391 891 518 763 230 67 730 305 567 279 80 805 779 364 97 149 649 597 108 608 864 225 64 725 580 564 
Route 24 : 421 65 565 199 699 921 358 457 957 203 703 341 841 250 858 319 295 750 151 819 109 651 795 31 531 609 
Route 25 : 71 336 571 836 426 926 254 448 143 948 754 399 187 899 14 643 103 603 514 44 687 212 544 366 712 866 
Route 26 : 282 13 314 513 159 659 154 654 96 814 7 507 596 202 702 458 958 233 329 829 493 733 140 640 993 782 
Route 27 : 101 331 378 878 831 379 879 450 372 601 451 353 853 419 951 919 872 104 950 256 756 604 29 392 171 892 529 499 671 999 
Route 28 : 367 281 198 698 381 881 38 781 538 197 469 867 357 697 86 857 586 251 969 125 51 260 751 625 551 760 
Route 29 : 320 820 388 121 122 888 621 622 291 301 801 791 470 48 548 970 479 979 482 982 376 270 876 770 326 495 826 98 598 995 
Route 30 : 229 190 420 729 87 920 172 672 184 587 425 925 385 690 684 885 442 311 362 46 137 546 942 637 811 416 862 916 
Route 31 : 434 53 934 342 553 4 504 276 153 842 653 449 776 487 949 307 12 310 810 28 512 807 27 236 527 736 987 22 522 528 
Route 32 : 166 666 107 280 780 607 1 55 9 555 179 509 679 501 468 185 235 735 968 494 60 560 994 685 
Route 33 : 345 397 897 262 762 845 26 526 183 170 670 231 40 731 405 905 500 540 683 332 106 832 606 1000 374 874 
Route 34 : 23 523 118 343 618 432 843 227 932 36 536 491 991 211 711 490 407 436 727 61 936 561 91 591 907 990 
Route 35 : 384 447 947 884 126 189 626 340 689 454 394 954 840 363 894 863 441 275 775 21 521 481 981 402 902 941 
Route 36 : 84 177 677 20 584 423 923 431 520 146 931 646 297 102 473 973 308 35 797 602 808 535 
Route 37 : 273 344 422 191 691 773 922 244 165 744 844 218 718 290 665 790 417 917 32 532 330 830 
Route 38 : 220 287 720 787 92 47 592 169 145 669 645 547 471 971 350 850 406 82 582 467 906 967 
Route 39 : 196 354 232 696 732 355 854 430 855 289 930 789 
Route 40 : 472 368 868 972 205 705 142 284 642 498 998 208 784 33 708 533 
Route 41 : 206 217 356 706 192 717 692 856 346 486 846 986 

--------------------------------------------------------------------------------(Solver execution current time: 2865.2424550056458)
[SOLUTION]
Solution after BasicGreedyLimitedHeterogeneousFleet
obj_value: -494; obj_routes: 4341
Route 1 : 10 89 589 510 56 267 556 351 851 226 726 318 818 200 700 15 359 859 515 241 767 741 
Route 2 : 79 95 299 799 228 728 334 834 595 161 492 992 440 940 181 681 70 579 167 667 410 910 488 988 661 278 778 570 
Route 3 : 123 277 623 74 574 777 304 411 911 415 288 788 915 119 485 985 272 772 619 238 738 427 927 804 
Route 4 : 360 68 429 568 860 66 566 409 438 464 929 964 11 155 655 511 938 909 474 974 259 759 
Route 5 : 292 105 131 605 444 792 631 944 111 466 611 30 966 530 294 497 408 794 997 908 476 2 383 883 502 976 
Route 6 : 484 984 223 317 817 325 825 148 268 768 75 648 393 575 723 99 455 893 599 955 300 800 
Route 7 : 338 838 253 753 248 240 748 740 157 657 461 387 42 961 58 887 542 558 195 695 178 678 
Route 8 : 72 572 162 400 34 534 900 456 361 662 956 285 45 861 545 283 785 133 783 633 
Route 9 : 216 716 396 59 559 896 271 321 224 821 335 835 138 771 382 882 16 516 453 953 477 977 724 638 
Route 10 : 173 673 182 682 209 709 404 904 386 886 390 333 124 890 323 624 833 823 
Route 11 : 433 261 761 933 265 113 765 613 412 252 752 239 739 302 150 174 802 475 650 912 324 824 674 975 
Route 12 : 54 188 688 204 704 554 373 43 306 806 543 873 24 370 870 524 78 6 506 163 578 663 39 539 
Route 13 : 413 913 83 403 463 903 377 963 583 180 877 339 134 680 266 839 634 398 389 898 766 889 242 742 
Route 14 : 349 152 849 234 734 652 480 176 245 745 117 676 980 617 207 129 110 629 707 286 610 298 786 798 
Route 15 : 77 139 639 577 249 496 996 465 965 309 809 749 237 737 147 41 647 541 296 796 
Route 16 : 269 258 758 127 769 627 347 112 847 428 928 135 635 312 612 50 550 219 812 719 81 130 581 630 
Route 17 : 380 210 710 213 880 446 713 489 946 303 803 989 5 37 537 186 348 62 505 686 562 848 
Route 18 : 264 214 194 694 764 246 714 746 52 552 115 315 615 316 815 816 175 414 914 459 675 959 158 658 
Route 19 : 483 365 375 327 827 443 983 865 76 322 822 943 576 875 401 452 352 952 243 743 852 215 478 715 901 978 19 69 519 569 
Route 20 : 435 337 935 160 837 116 660 255 371 755 871 168 222 722 193 668 616 693 88 588 418 328 93 828 918 593 144 644 
Route 21 : 424 924 201 247 701 462 100 747 395 895 156 600 49 549 962 656 274 8 508 774 90 221 25 721 445 590 525 945 
Route 22 : 313 85 17 585 517 136 636 437 937 128 439 813 120 939 369 293 620 793 73 573 114 614 63 563 460 960 628 869 
Route 23 : 263 18 94 594 391 891 518 763 230 67 730 305 567 279 80 805 779 364 97 149 649 597 108 608 864 225 64 725 580 564 
Route 24 : 421 65 565 199 699 921 358 457 957 203 703 341 841 250 858 319 295 750 151 819 109 651 795 31 531 609 
Route 25 : 71 336 571 836 426 926 254 448 143 948 754 399 187 899 14 643 103 603 514 44 687 212 544 366 712 866 
Route 26 : 282 13 314 513 159 659 154 654 96 814 7 507 596 202 702 458 958 233 329 829 493 733 140 640 993 782 
Route 27 : 101 331 378 878 831 379 879 450 372 601 451 353 853 419 951 919 872 104 950 256 756 604 29 392 171 892 529 499 671 999 
Route 28 : 367 281 198 698 381 881 38 781 538 197 469 867 357 697 86 857 586 251 969 125 51 260 751 625 551 760 
Route 29 : 320 820 388 121 122 888 621 622 291 301 801 791 470 48 548 970 479 979 482 982 376 270 876 770 326 495 826 98 598 995 
Route 30 : 229 190 420 729 87 920 172 672 184 587 425 925 385 690 684 885 442 311 362 46 137 546 942 637 811 416 862 916 
Route 31 : 434 53 934 342 553 4 504 276 153 842 653 449 776 487 949 307 12 310 810 28 512 807 27 236 527 736 987 22 522 528 
Route 32 : 166 666 107 280 780 607 1 55 9 555 179 509 679 501 468 185 235 735 968 494 60 560 994 685 
Route 33 : 345 397 897 262 762 845 26 526 183 170 670 231 40 731 405 905 500 540 683 332 106 832 606 1000 374 874 
Route 34 : 23 523 118 343 618 432 843 227 932 36 536 491 991 211 711 490 407 436 727 61 936 561 91 591 907 990 
Route 35 : 384 447 947 884 126 189 626 340 689 454 394 954 840 363 894 863 441 275 775 21 521 481 981 402 902 941 
Route 36 : 84 177 677 20 584 423 923 431 520 146 931 646 297 102 473 973 308 35 797 602 808 535 
Route 37 : 273 344 422 191 691 773 922 244 165 744 844 218 718 290 665 790 417 917 32 532 330 830 
Route 38 : 220 287 720 787 92 47 592 169 145 669 645 547 471 971 350 850 406 82 582 467 906 967 
Route 39 : 196 354 232 696 732 355 854 430 855 289 930 789 
Route 40 : 472 368 868 972 205 705 142 284 642 498 998 208 784 33 708 533 
Route 41 : 206 217 356 706 192 717 692 856 346 486 846 986 

--------------------------------------------------------------------------------(Solver execution current time: 2865.2453439235687)
[INFO] Starting metaheuristic
--------------------------------------------------------------------------------(Solver execution current time: 2865.283936023712)
[INFO] AGES EXCLUDED
--------------------------------------------------------------------------------(Solver execution current time: 3600.134776830673)
[WARNING] Time Limit Exceeded
--------------------------------------------------------------------------------(Solver execution current time: 3600.1351356506348)
[WARNING] Searching current best solution.
--------------------------------------------------------------------------------(Solver execution current time: 3600.147018432617)
[WARNING] Current best solution found.
--------------------------------------------------------------------------------(Solver execution current time: 3600.147249698639)
[INFO] Algorithm execution time : 3600.149761199951
--------------------------------------------------------------------------------(Solver execution current time: 3600.160472869873)
[SOLUTION]
Final Solution Verification
====================================
Constraints verification: 
Homogenous Capacity Constraint OK
Time Windwos Constraint OK
Pickup and Delivery Constraint OK
Fixed Requests Constraint OK
Limited Fleet Constraint OK
Heterogeneous Fleet Constraint OK
====================================
Obj Func verification: 
SOLUTION COST OK
------------------------------------
ROUTES TOTAL COST OK
------------------------------------
REQUESTS TOTAL COST OK
------------------------------------
OBJECTIVE VALUE: -494
ROUTES VALUE: 4341
------------------------------------

Best Solution: 
obj_value: -494; obj_routes: 4341
Route 1 : 10 89 589 510 56 267 556 351 851 226 726 318 818 200 700 15 359 859 515 241 767 741 
Route 2 : 79 95 299 799 228 728 334 834 595 161 492 992 440 940 181 681 70 579 167 667 410 910 488 988 661 278 778 570 
Route 3 : 123 277 623 74 574 777 304 411 911 415 288 788 915 119 485 985 272 772 619 238 738 427 927 804 
Route 4 : 360 68 429 568 860 66 566 409 438 464 929 964 11 155 655 511 938 909 474 974 259 759 
Route 5 : 292 105 131 605 444 792 631 944 111 466 611 30 966 530 294 497 408 794 997 908 476 2 383 883 502 976 
Route 6 : 484 984 223 317 817 325 825 148 268 768 75 648 393 575 723 99 455 893 599 955 300 800 
Route 7 : 338 838 253 753 248 240 748 740 157 657 461 387 42 961 58 887 542 558 195 695 178 678 
Route 8 : 72 572 162 400 34 534 900 456 361 662 956 285 45 861 545 283 785 133 783 633 
Route 9 : 216 716 396 59 559 896 271 321 224 821 335 835 138 771 382 882 16 516 453 953 477 977 724 638 
Route 10 : 173 673 182 682 209 709 404 904 386 886 390 333 124 890 323 624 833 823 
Route 11 : 433 261 761 933 265 113 765 613 412 252 752 239 739 302 150 174 802 475 650 912 324 824 674 975 
Route 12 : 54 188 688 204 704 554 373 43 306 806 543 873 24 370 870 524 78 6 506 163 578 663 39 539 
Route 13 : 413 913 83 403 463 903 377 963 583 180 877 339 134 680 266 839 634 398 389 898 766 889 242 742 
Route 14 : 349 152 849 234 734 652 480 176 245 745 117 676 980 617 207 129 110 629 707 286 610 298 786 798 
Route 15 : 77 139 639 577 249 496 996 465 965 309 809 749 237 737 147 41 647 541 296 796 
Route 16 : 269 258 758 127 769 627 347 112 847 428 928 135 635 312 612 50 550 219 812 719 81 130 581 630 
Route 17 : 380 210 710 213 880 446 713 489 946 303 803 989 5 37 537 186 348 62 505 686 562 848 
Route 18 : 264 214 194 694 764 246 714 746 52 552 115 315 615 316 815 816 175 414 914 459 675 959 158 658 
Route 19 : 483 365 375 327 827 443 983 865 76 322 822 943 576 875 401 452 352 952 243 743 852 215 478 715 901 978 19 69 519 569 
Route 20 : 435 337 935 160 837 116 660 255 371 755 871 168 222 722 193 668 616 693 88 588 418 328 93 828 918 593 144 644 
Route 21 : 424 924 201 247 701 462 100 747 395 895 156 600 49 549 962 656 274 8 508 774 90 221 25 721 445 590 525 945 
Route 22 : 313 85 17 585 517 136 636 437 937 128 439 813 120 939 369 293 620 793 73 573 114 614 63 563 460 960 628 869 
Route 23 : 263 18 94 594 391 891 518 763 230 67 730 305 567 279 80 805 779 364 97 149 649 597 108 608 864 225 64 725 580 564 
Route 24 : 421 65 565 199 699 921 358 457 957 203 703 341 841 250 858 319 295 750 151 819 109 651 795 31 531 609 
Route 25 : 71 336 571 836 426 926 254 448 143 948 754 399 187 899 14 643 103 603 514 44 687 212 544 366 712 866 
Route 26 : 282 13 314 513 159 659 154 654 96 814 7 507 596 202 702 458 958 233 329 829 493 733 140 640 993 782 
Route 27 : 101 331 378 878 831 379 879 450 372 601 451 353 853 419 951 919 872 104 950 256 756 604 29 392 171 892 529 499 671 999 
Route 28 : 367 281 198 698 381 881 38 781 538 197 469 867 357 697 86 857 586 251 969 125 51 260 751 625 551 760 
Route 29 : 320 820 388 121 122 888 621 622 291 301 801 791 470 48 548 970 479 979 482 982 376 270 876 770 326 495 826 98 598 995 
Route 30 : 229 190 420 729 87 920 172 672 184 587 425 925 385 690 684 885 442 311 362 46 137 546 942 637 811 416 862 916 
Route 31 : 434 53 934 342 553 4 504 276 153 842 653 449 776 487 949 307 12 310 810 28 512 807 27 236 527 736 987 22 522 528 
Route 32 : 166 666 107 280 780 607 1 55 9 555 179 509 679 501 468 185 235 735 968 494 60 560 994 685 
Route 33 : 345 397 897 262 762 845 26 526 183 170 670 231 40 731 405 905 500 540 683 332 106 832 606 1000 374 874 
Route 34 : 23 523 118 343 618 432 843 227 932 36 536 491 991 211 711 490 407 436 727 61 936 561 91 591 907 990 
Route 35 : 384 447 947 884 126 189 626 340 689 454 394 954 840 363 894 863 441 275 775 21 521 481 981 402 902 941 
Route 36 : 84 177 677 20 584 423 923 431 520 146 931 646 297 102 473 973 308 35 797 602 808 535 
Route 37 : 273 344 422 191 691 773 922 244 165 744 844 218 718 290 665 790 417 917 32 532 330 830 
Route 38 : 220 287 720 787 92 47 592 169 145 669 645 547 471 971 350 850 406 82 582 467 906 967 
Route 39 : 196 354 232 696 732 355 854 430 855 289 930 789 
Route 40 : 472 368 868 972 205 705 142 284 642 498 998 208 784 33 708 533 
Route 41 : 206 217 356 706 192 717 692 856 346 486 846 986 

--------------------------------------------------------------------------------